40
1 0 1
2 1 1
3 1 1
3 2 1
4 0 1
5 2 1
5 3 1
6 0 1
6 1 1
6 5 1
7 0 1
7 3 1
7 5 1
7 6 1
8 1 1
8 2 1
8 3 1
8 4 1
9 4 1
9 6 1
9 7 1
10 0 1
10 3 1
10 5 1
10 6 1
10 8 1
11 1 1
11 3 1
11 6 1
11 9 1
12 3 1
12 4 1
12 5 1
13 0 1
13 4 1
13 5 1
13 6 1
13 9 1
13 10 1
14 1 1
14 2 1
14 3 1
14 4 1
14 6 1
14 11 1
14 12 1
15 0 1
15 4 1
15 5 1
15 6 1
15 7 1
15 9 1
15 12 1
15 14 1
16 0 1
16 1 1
16 6 1
16 11 1
16 13 1
16 15 1
17 3 1
17 4 1
17 5 1
17 7 1
17 9 1
17 10 1
17 11 1
17 12 1
17 15 1
18 0 1
18 1 1
18 2 1
18 3 1
18 4 1
18 8 1
18 11 1
18 12 1
18 15 1
18 17 1
19 1 1
19 2 1
19 3 1
19 4 1
19 5 1
19 6 1
19 7 1
19 10 1
19 14 1
19 16 1
19 17 1
19 18 1
20 1 1
20 3 1
20 4 1
20 7 1
20 11 1
20 13 1
20 14 1
20 16 1
20 17 1
20 18 1
20 19 1
21 1 1
21 5 1
21 6 1
21 10 1
21 11 1
21 13 1
21 16 1
21 20 1
22 1 1
22 2 1
22 3 1
22 5 1
22 6 1
22 7 1
22 9 1
22 11 1
22 12 1
22 14 1
22 15 1
22 19 1
23 3 1
23 4 1
23 8 1
23 12 1
23 15 1
23 16 1
24 0 1
24 3 1
24 5 1
24 7 1
24 8 1
24 9 1
24 10 1
24 11 1
24 14 1
24 17 1
24 20 1
24 23 1
25 1 1
25 2 1
25 3 1
25 6 1
25 9 1
25 11 1
25 12 1
25 13 1
25 15 1
25 16 1
25 17 1
25 21 1
25 22 1
25 23 1
26 0 1
26 1 1
26 6 1
26 9 1
26 12 1
26 14 1
26 15 1
26 17 1
26 19 1
26 20 1
26 23 1
26 25 1
27 0 1
27 1 1
27 2 1
27 3 1
27 4 1
27 5 1
27 8 1
27 9 1
27 10 1
27 17 1
27 19 1
27 20 1
27 22 1
27 23 1
27 24 1
27 25 1
28 1 1
28 2 1
28 4 1
28 5 1
28 6 1
28 7 1
28 10 1
28 12 1
28 13 1
28 14 1
28 15 1
28 16 1
28 18 1
28 20 1
28 24 1
28 26 1
28 27 1
29 1 1
29 2 1
29 3 1
29 4 1
29 5 1
29 6 1
29 7 1
29 8 1
29 9 1
29 10 1
29 13 1
29 14 1
29 16 1
29 17 1
29 19 1
29 20 1
29 21 1
29 22 1
29 23 1
29 24 1
29 25 1
29 27 1
30 4 1
30 11 1
30 12 1
30 13 1
30 14 1
30 17 1
30 19 1
30 22 1
30 24 1
30 28 1
30 29 1
31 1 1
31 3 1
31 4 1
31 14 1
31 15 1
31 18 1
31 19 1
31 20 1
31 21 1
31 22 1
31 25 1
31 28 1
31 30 1
32 0 1
32 1 1
32 2 1
32 8 1
32 12 1
32 13 1
32 15 1
32 16 1
32 19 1
32 21 1
32 22 1
32 25 1
32 27 1
32 29 1
32 30 1
33 0 1
33 4 1
33 5 1
33 6 1
33 8 1
33 10 1
33 11 1
33 12 1
33 13 1
33 14 1
33 15 1
33 19 1
33 20 1
33 21 1
33 25 1
33 26 1
33 27 1
33 29 1
34 2 1
34 5 1
34 8 1
34 9 1
34 10 1
34 13 1
34 15 1
34 16 1
34 18 1
34 23 1
34 26 1
34 28 1
34 29 1
34 31 1
35 0 1
35 2 1
35 8 1
35 11 1
35 14 1
35 21 1
35 22 1
35 25 1
35 27 1
35 30 1
35 32 1
36 2 1
36 5 1
36 6 1
36 8 1
36 9 1
36 10 1
36 12 1
36 13 1
36 16 1
36 18 1
36 19 1
36 20 1
36 23 1
36 24 1
36 25 1
36 27 1
36 28 1
36 31 1
36 34 1
37 0 1
37 1 1
37 2 1
37 5 1
37 8 1
37 9 1
37 12 1
37 16 1
37 17 1
37 18 1
37 21 1
37 23 1
37 25 1
37 26 1
37 31 1
37 35 1
37 36 1
38 0 1
38 1 1
38 2 1
38 4 1
38 9 1
38 10 1
38 12 1
38 13 1
38 14 1
38 15 1
38 16 1
38 21 1
38 23 1
38 24 1
38 25 1
38 26 1
38 28 1
38 30 1
38 34 1
38 36 1
38 37 1
39 0 1
39 6 1
39 7 1
39 8 1
39 10 1
39 13 1
39 14 1
39 16 1
39 17 1
39 19 1
39 20 1
39 22 1
39 23 1
39 27 1
39 29 1
39 30 1
39 31 1
39 32 1
39 33 1
39 36 1
39 37 1
